examples/inputs/input32.dzn
n = 72;
l = 500;
s = 500;
r = 500;
f = 100;
forbidden = [| 43, 17
	| 60, 63
	| 48, 15
	| 24, 51
	| 61, 1
	| 21, 25
	| 60, 8
	| 39, 15
	| 24, 31
	| 16, 4
	| 8, 5
	| 31, 11
	| 29, 61
	| 34, 50
	| 29, 23
	| 45, 18
	| 39, 52
	| 24, 30
	| 11, 11
	| 19, 8
	| 62, 3
	| 51, 32
	| 62, 28
	| 29, 17
	| 18, 50
	| 40, 25
	| 34, 69
	| 2, 63
	| 18, 6
	| 62, 43
	| 7, 2
	| 14, 12
	| 72, 43
	| 6, 16
	| 66, 42
	| 31, 34
	| 43, 66
	| 5, 11
	| 44, 17
	| 57, 1
	| 25, 41
	| 58, 72
	| 31, 32
	| 35, 4
	| 43, 58
	| 4, 71
	| 17, 31
	| 54, 6
	| 39, 41
	| 36, 5
	| 26, 50
	| 64, 42
	| 14, 72
	| 67, 68
	| 35, 67
	| 51, 26
	| 25, 66
	| 17, 57
	| 69, 19
	| 3, 36
	| 4, 6
	| 10, 18
	| 40, 38
	| 2, 51
	| 8, 40
	| 21, 15
	| 31, 45
	| 49, 19
	| 43, 68
	| 1, 17
	| 48, 40
	| 7, 22
	| 69, 71
	| 23, 22
	| 53, 16
	| 43, 56
	| 23, 62
	| 27, 36
	| 45, 38
	| 70, 47
	| 70, 68
	| 6, 35
	| 53, 34
	| 69, 21
	| 36, 41
	| 2, 45
	| 65, 52
	| 64, 66
	| 13, 72
	| 39, 28
	| 6, 68
	| 9, 57
	| 37, 27
	| 43, 46
	| 48, 5
	| 56, 6
	| 56, 60
	| 30, 2
	| 17, 30
	| 56, 46
	|];