examples/inputs/input32.lp
#const n = 72.
#const l = 500.
#const s = 500.
#const r = 500.
#const f = 100.
val(43, 17, xxx).
val(60, 63, xxx).
val(48, 15, xxx).
val(24, 51, xxx).
val(61, 1, xxx).
val(21, 25, xxx).
val(60, 8, xxx).
val(39, 15, xxx).
val(24, 31, xxx).
val(16, 4, xxx).
val(8, 5, xxx).
val(31, 11, xxx).
val(29, 61, xxx).
val(34, 50, xxx).
val(29, 23, xxx).
val(45, 18, xxx).
val(39, 52, xxx).
val(24, 30, xxx).
val(11, 11, xxx).
val(19, 8, xxx).
val(62, 3, xxx).
val(51, 32, xxx).
val(62, 28, xxx).
val(29, 17, xxx).
val(18, 50, xxx).
val(40, 25, xxx).
val(34, 69, xxx).
val(2, 63, xxx).
val(18, 6, xxx).
val(62, 43, xxx).
val(7, 2, xxx).
val(14, 12, xxx).
val(72, 43, xxx).
val(6, 16, xxx).
val(66, 42, xxx).
val(31, 34, xxx).
val(43, 66, xxx).
val(5, 11, xxx).
val(44, 17, xxx).
val(57, 1, xxx).
val(25, 41, xxx).
val(58, 72, xxx).
val(31, 32, xxx).
val(35, 4, xxx).
val(43, 58, xxx).
val(4, 71, xxx).
val(17, 31, xxx).
val(54, 6, xxx).
val(39, 41, xxx).
val(36, 5, xxx).
val(26, 50, xxx).
val(64, 42, xxx).
val(14, 72, xxx).
val(67, 68, xxx).
val(35, 67, xxx).
val(51, 26, xxx).
val(25, 66, xxx).
val(17, 57, xxx).
val(69, 19, xxx).
val(3, 36, xxx).
val(4, 6, xxx).
val(10, 18, xxx).
val(40, 38, xxx).
val(2, 51, xxx).
val(8, 40, xxx).
val(21, 15, xxx).
val(31, 45, xxx).
val(49, 19, xxx).
val(43, 68, xxx).
val(1, 17, xxx).
val(48, 40, xxx).
val(7, 22, xxx).
val(69, 71, xxx).
val(23, 22, xxx).
val(53, 16, xxx).
val(43, 56, xxx).
val(23, 62, xxx).
val(27, 36, xxx).
val(45, 38, xxx).
val(70, 47, xxx).
val(70, 68, xxx).
val(6, 35, xxx).
val(53, 34, xxx).
val(69, 21, xxx).
val(36, 41, xxx).
val(2, 45, xxx).
val(65, 52, xxx).
val(64, 66, xxx).
val(13, 72, xxx).
val(39, 28, xxx).
val(6, 68, xxx).
val(9, 57, xxx).
val(37, 27, xxx).
val(43, 46, xxx).
val(48, 5, xxx).
val(56, 6, xxx).
val(56, 60, xxx).
val(30, 2, xxx).
val(17, 30, xxx).
val(56, 46, xxx).